(set-logic HORN)
(declare-fun state (Int (Array Int Int) (Array Int Int) (Array Int Int) (Array Int Int) Int Int (Array Int Int) (Array Int Int) Int Int Int Int Int Int Int Int Int Int Int Int Int Int Bool Bool Bool Bool Bool (Array Int Int)) Bool)
(assert (forall ((|hhv_ULTIMATE.start_ULTIMATE.startEXIT_0_Int| Int) (|hhv_ULTIMATE.start_ULTIMATE.startEXIT_1_Array_Int_Int| (Array Int Int)) (|hhv_ULTIMATE.start_ULTIMATE.startEXIT_2_Array_Int_Int| (Array Int Int)) (|hhv_ULTIMATE.start_ULTIMATE.startEXIT_3_Array_Int_Array_Int_Int| (Array Int Int)) (|hhv_ULTIMATE.start_ULTIMATE.startEXIT_4_Array_Int_Array_Int_Int| (Array Int Int)) (|hhv_ULTIMATE.start_ULTIMATE.startEXIT_5_Int| Int) (|hhv_ULTIMATE.start_ULTIMATE.startEXIT_6_Int| Int) (|hhv_ULTIMATE.start_ULTIMATE.startEXIT_7_Array_Int_Int| (Array Int Int)) (|hhv_ULTIMATE.start_ULTIMATE.startEXIT_8_Array_Int_Int| (Array Int Int)) (|hhv_ULTIMATE.start_ULTIMATE.startEXIT_9_Int| Int) (|hhv_ULTIMATE.start_ULTIMATE.startEXIT_10_Int| Int) (|hhv_ULTIMATE.start_ULTIMATE.startEXIT_11_Int| Int) (|hhv_ULTIMATE.start_ULTIMATE.startEXIT_12_Int| Int) (|hhv_ULTIMATE.start_ULTIMATE.startEXIT_13_Int| Int) (|hhv_ULTIMATE.start_ULTIMATE.startEXIT_14_Int| Int) (|hhv_ULTIMATE.start_ULTIMATE.startEXIT_15_Int| Int) (|hhv_ULTIMATE.start_ULTIMATE.startEXIT_16_Int| Int) (|hhv_ULTIMATE.start_ULTIMATE.startEXIT_17_Int| Int) (|hhv_ULTIMATE.start_ULTIMATE.startEXIT_18_Int| Int) (|hhv_ULTIMATE.start_ULTIMATE.startEXIT_19_Int| Int) (|hhv_ULTIMATE.start_ULTIMATE.startEXIT_20_Int| Int) (|hhv_ULTIMATE.start_ULTIMATE.startEXIT_21_Int| Int) (|hhv_ULTIMATE.start_ULTIMATE.startEXIT_22_Int| Int) (|hbv_ULTIMATE.start_L2-1_23_Bool| Bool) (|.loc.5| Bool) (|.loc.6| Bool) (|.loc.7| Bool) (|.loc.8| Bool) (|hbv_ULTIMATE.start_L-1_1_Array_Int_Int| (Array Int Int)) (|.x.295| Int) (|.x.293| (Array Int Int)) (|.x.291| Int) (|.x.289| (Array Int Int)) (|.x.285| Int) (|.x.287| (Array Int Int)) (|.x.286| (Array Int Int)) (|hhv_ULTIMATE.start_ULTIMATE.startEXIT_23_Bool| Bool) (|.x.296| Int) (|.x.297| Int) (|.x.298| Int) (|.x.300| Int) (|.loc.12| Bool) (|.loc.10| Bool) (|.loc.11| Bool) (|.x.301| Int) (|.x.299| Int) (|.x.305| Int) (|.x.307| Int) (|.loc.9| Bool) (|.x.306| Int) (|.x.303| Int) (|.x.302| Int) (|.x.288| (Array Int Int)) (|.x.304| Int) (|.x.294| Int) (|.x.290| Int) (|.x.292| (Array Int Int)) (|.xtv.1| (Array Int Int))) (=> (and (and (and (and .loc.5 (not .loc.6)) (not .loc.7)) (not .loc.8)) (and (and (and (and (and (= hhv_ULTIMATE.start_ULTIMATE.startEXIT_1_Array_Int_Int hhv_ULTIMATE.start_ULTIMATE.startEXIT_2_Array_Int_Int) (= hhv_ULTIMATE.start_ULTIMATE.startEXIT_7_Array_Int_Int hhv_ULTIMATE.start_ULTIMATE.startEXIT_8_Array_Int_Int)) (= hhv_ULTIMATE.start_ULTIMATE.startEXIT_5_Int hhv_ULTIMATE.start_ULTIMATE.startEXIT_6_Int)) (= hhv_ULTIMATE.start_ULTIMATE.startEXIT_9_Int hhv_ULTIMATE.start_ULTIMATE.startEXIT_10_Int)) (= hhv_ULTIMATE.start_ULTIMATE.startEXIT_3_Array_Int_Array_Int_Int hhv_ULTIMATE.start_ULTIMATE.startEXIT_4_Array_Int_Array_Int_Int)) (not hbv_ULTIMATE.start_L2-1_23_Bool))) (state |hhv_ULTIMATE.start_ULTIMATE.startEXIT_0_Int| |hhv_ULTIMATE.start_ULTIMATE.startEXIT_1_Array_Int_Int| |hhv_ULTIMATE.start_ULTIMATE.startEXIT_2_Array_Int_Int| |hhv_ULTIMATE.start_ULTIMATE.startEXIT_3_Array_Int_Array_Int_Int| |hhv_ULTIMATE.start_ULTIMATE.startEXIT_4_Array_Int_Array_Int_Int| |hhv_ULTIMATE.start_ULTIMATE.startEXIT_5_Int| |hhv_ULTIMATE.start_ULTIMATE.startEXIT_6_Int| |hhv_ULTIMATE.start_ULTIMATE.startEXIT_7_Array_Int_Int| |hhv_ULTIMATE.start_ULTIMATE.startEXIT_8_Array_Int_Int| |hhv_ULTIMATE.start_ULTIMATE.startEXIT_9_Int| |hhv_ULTIMATE.start_ULTIMATE.startEXIT_10_Int| |hhv_ULTIMATE.start_ULTIMATE.startEXIT_11_Int| |hhv_ULTIMATE.start_ULTIMATE.startEXIT_12_Int| |hhv_ULTIMATE.start_ULTIMATE.startEXIT_13_Int| |hhv_ULTIMATE.start_ULTIMATE.startEXIT_14_Int| |hhv_ULTIMATE.start_ULTIMATE.startEXIT_15_Int| |hhv_ULTIMATE.start_ULTIMATE.startEXIT_16_Int| |hhv_ULTIMATE.start_ULTIMATE.startEXIT_17_Int| |hhv_ULTIMATE.start_ULTIMATE.startEXIT_18_Int| |hhv_ULTIMATE.start_ULTIMATE.startEXIT_19_Int| |hhv_ULTIMATE.start_ULTIMATE.startEXIT_20_Int| |hhv_ULTIMATE.start_ULTIMATE.startEXIT_21_Int| |hhv_ULTIMATE.start_ULTIMATE.startEXIT_22_Int| |hbv_ULTIMATE.start_L2-1_23_Bool| |.loc.5| |.loc.6| |.loc.7| |.loc.8| |hbv_ULTIMATE.start_L-1_1_Array_Int_Int|))))
(assert (forall ((|hhv_ULTIMATE.start_ULTIMATE.startEXIT_0_Int| Int) (|hhv_ULTIMATE.start_ULTIMATE.startEXIT_1_Array_Int_Int| (Array Int Int)) (|hhv_ULTIMATE.start_ULTIMATE.startEXIT_2_Array_Int_Int| (Array Int Int)) (|hhv_ULTIMATE.start_ULTIMATE.startEXIT_3_Array_Int_Array_Int_Int| (Array Int Int)) (|hhv_ULTIMATE.start_ULTIMATE.startEXIT_4_Array_Int_Array_Int_Int| (Array Int Int)) (|hhv_ULTIMATE.start_ULTIMATE.startEXIT_5_Int| Int) (|hhv_ULTIMATE.start_ULTIMATE.startEXIT_6_Int| Int) (|hhv_ULTIMATE.start_ULTIMATE.startEXIT_7_Array_Int_Int| (Array Int Int)) (|hhv_ULTIMATE.start_ULTIMATE.startEXIT_8_Array_Int_Int| (Array Int Int)) (|hhv_ULTIMATE.start_ULTIMATE.startEXIT_9_Int| Int) (|hhv_ULTIMATE.start_ULTIMATE.startEXIT_10_Int| Int) (|hhv_ULTIMATE.start_ULTIMATE.startEXIT_11_Int| Int) (|hhv_ULTIMATE.start_ULTIMATE.startEXIT_12_Int| Int) (|hhv_ULTIMATE.start_ULTIMATE.startEXIT_13_Int| Int) (|hhv_ULTIMATE.start_ULTIMATE.startEXIT_14_Int| Int) (|hhv_ULTIMATE.start_ULTIMATE.startEXIT_15_Int| Int) (|hhv_ULTIMATE.start_ULTIMATE.startEXIT_16_Int| Int) (|hhv_ULTIMATE.start_ULTIMATE.startEXIT_17_Int| Int) (|hhv_ULTIMATE.start_ULTIMATE.startEXIT_18_Int| Int) (|hhv_ULTIMATE.start_ULTIMATE.startEXIT_19_Int| Int) (|hhv_ULTIMATE.start_ULTIMATE.startEXIT_20_Int| Int) (|hhv_ULTIMATE.start_ULTIMATE.startEXIT_21_Int| Int) (|hhv_ULTIMATE.start_ULTIMATE.startEXIT_22_Int| Int) (|hbv_ULTIMATE.start_L2-1_23_Bool| Bool) (|.loc.5| Bool) (|.loc.6| Bool) (|.loc.7| Bool) (|.loc.8| Bool) (|hbv_ULTIMATE.start_L-1_1_Array_Int_Int| (Array Int Int)) (|.x.295| Int) (|.x.293| (Array Int Int)) (|.x.291| Int) (|.x.289| (Array Int Int)) (|.x.285| Int) (|.x.287| (Array Int Int)) (|.x.286| (Array Int Int)) (|hhv_ULTIMATE.start_ULTIMATE.startEXIT_23_Bool| Bool) (|.x.296| Int) (|.x.297| Int) (|.x.298| Int) (|.x.300| Int) (|.loc.12| Bool) (|.loc.10| Bool) (|.loc.11| Bool) (|.x.301| Int) (|.x.299| Int) (|.x.305| Int) (|.x.307| Int) (|.loc.9| Bool) (|.x.306| Int) (|.x.303| Int) (|.x.302| Int) (|.x.288| (Array Int Int)) (|.x.304| Int) (|.x.294| Int) (|.x.290| Int) (|.x.292| (Array Int Int)) (|.xtv.1| (Array Int Int))) (=> (and (state |hhv_ULTIMATE.start_ULTIMATE.startEXIT_0_Int| |hhv_ULTIMATE.start_ULTIMATE.startEXIT_1_Array_Int_Int| |hhv_ULTIMATE.start_ULTIMATE.startEXIT_2_Array_Int_Int| |hhv_ULTIMATE.start_ULTIMATE.startEXIT_3_Array_Int_Array_Int_Int| |hhv_ULTIMATE.start_ULTIMATE.startEXIT_4_Array_Int_Array_Int_Int| |hhv_ULTIMATE.start_ULTIMATE.startEXIT_5_Int| |hhv_ULTIMATE.start_ULTIMATE.startEXIT_6_Int| |hhv_ULTIMATE.start_ULTIMATE.startEXIT_7_Array_Int_Int| |hhv_ULTIMATE.start_ULTIMATE.startEXIT_8_Array_Int_Int| |hhv_ULTIMATE.start_ULTIMATE.startEXIT_9_Int| |hhv_ULTIMATE.start_ULTIMATE.startEXIT_10_Int| |hhv_ULTIMATE.start_ULTIMATE.startEXIT_11_Int| |hhv_ULTIMATE.start_ULTIMATE.startEXIT_12_Int| |hhv_ULTIMATE.start_ULTIMATE.startEXIT_13_Int| |hhv_ULTIMATE.start_ULTIMATE.startEXIT_14_Int| |hhv_ULTIMATE.start_ULTIMATE.startEXIT_15_Int| |hhv_ULTIMATE.start_ULTIMATE.startEXIT_16_Int| |hhv_ULTIMATE.start_ULTIMATE.startEXIT_17_Int| |hhv_ULTIMATE.start_ULTIMATE.startEXIT_18_Int| |hhv_ULTIMATE.start_ULTIMATE.startEXIT_19_Int| |hhv_ULTIMATE.start_ULTIMATE.startEXIT_20_Int| |hhv_ULTIMATE.start_ULTIMATE.startEXIT_21_Int| |hhv_ULTIMATE.start_ULTIMATE.startEXIT_22_Int| |hbv_ULTIMATE.start_L2-1_23_Bool| |.loc.5| |.loc.6| |.loc.7| |.loc.8| |hbv_ULTIMATE.start_L-1_1_Array_Int_Int|) (let ((.def_39 (not .loc.6))) (let ((.def_41 (not .loc.7))) (let ((.def_76 (= hhv_ULTIMATE.start_ULTIMATE.startEXIT_1_Array_Int_Int .x.286))) (let ((.def_80 (= hhv_ULTIMATE.start_ULTIMATE.startEXIT_11_Int .x.296))) (let ((.def_83 (= hhv_ULTIMATE.start_ULTIMATE.startEXIT_12_Int .x.297))) (let ((.def_86 (= hhv_ULTIMATE.start_ULTIMATE.startEXIT_13_Int .x.298))) (let ((.def_89 (= hhv_ULTIMATE.start_ULTIMATE.startEXIT_15_Int .x.300))) (let ((.def_91 (not .loc.5))) (let ((.def_102 (= hbv_ULTIMATE.start_L2-1_23_Bool hhv_ULTIMATE.start_ULTIMATE.startEXIT_23_Bool))) (let ((.def_109 (not .loc.10))) (let ((.def_112 (not .loc.11))) (let ((.def_115 (= hhv_ULTIMATE.start_ULTIMATE.startEXIT_14_Int 0))) (let ((.def_119 (and .def_86 (and .def_83 (and .def_76 .def_80))))) (let ((.def_120 (and .def_89 .def_119))) (let ((.def_125 (not .loc.12))) (let ((.def_131 (= hhv_ULTIMATE.start_ULTIMATE.startEXIT_16_Int .x.301))) (let ((.def_133 (= hhv_ULTIMATE.start_ULTIMATE.startEXIT_14_Int .x.299))) (let ((.def_136 (= hhv_ULTIMATE.start_ULTIMATE.startEXIT_20_Int .x.305))) (let ((.def_139 (= hhv_ULTIMATE.start_ULTIMATE.startEXIT_22_Int .x.307))) (let ((.def_142 (not .loc.9))) (let ((.def_152 (select hhv_ULTIMATE.start_ULTIMATE.startEXIT_3_Array_Int_Array_Int_Int hhv_ULTIMATE.start_ULTIMATE.startEXIT_13_Int))) (let ((.def_156 (<= 100000 hhv_ULTIMATE.start_ULTIMATE.startEXIT_21_Int))) (let ((.def_178 (= hhv_ULTIMATE.start_ULTIMATE.startEXIT_21_Int .x.306))) (let ((.def_180 (= hhv_ULTIMATE.start_ULTIMATE.startEXIT_18_Int .x.303))) (let ((.def_190 (and .def_89 (and .def_119 .def_133)))) (let ((.def_206 (and .def_136 (and .def_180 (and .def_131 .def_190))))) (let ((.def_218 (and hbv_ULTIMATE.start_L2-1_23_Bool .def_76))) (let ((.def_228 (and .def_139 (and .def_178 (and .def_136 (and .def_180 (and .def_131 (and .def_89 (and .def_133 (and .def_86 (and .def_83 (and .def_80 .def_218)))))))))))) (let ((.def_240 (and .def_139 (and .def_178 .def_206)))) (let ((.def_260 (<= 100000 hhv_ULTIMATE.start_ULTIMATE.startEXIT_19_Int))) (let ((.def_263 (and .def_91 (and .loc.6 .def_240)))) (let ((.def_273 (= hhv_ULTIMATE.start_ULTIMATE.startEXIT_17_Int .x.302))) (let ((.def_275 (= hhv_ULTIMATE.start_ULTIMATE.startEXIT_3_Array_Int_Array_Int_Int .x.288))) (let ((.def_278 (= hhv_ULTIMATE.start_ULTIMATE.startEXIT_19_Int .x.304))) (and (and (not .loc.8) (and (= hhv_ULTIMATE.start_ULTIMATE.startEXIT_10_Int .x.295) (and (= hhv_ULTIMATE.start_ULTIMATE.startEXIT_8_Array_Int_Int .x.293) (and (= hhv_ULTIMATE.start_ULTIMATE.startEXIT_6_Int .x.291) (and (= hhv_ULTIMATE.start_ULTIMATE.startEXIT_4_Array_Int_Array_Int_Int .x.289) (and (= hhv_ULTIMATE.start_ULTIMATE.startEXIT_0_Int .x.285) (= hhv_ULTIMATE.start_ULTIMATE.startEXIT_2_Array_Int_Int .x.287))))))) (or (and (or (or (or (and (or (or (or (or (or (or (and (or (and (or (and (or (and (and (and (and (and (and .def_76 hhv_ULTIMATE.start_ULTIMATE.startEXIT_23_Bool) .def_80) .def_83) .def_86) .def_89) .def_91) (and (or hbv_ULTIMATE.start_L2-1_23_Bool (and (= .x.300 0) (= .x.286 (store hhv_ULTIMATE.start_ULTIMATE.startEXIT_1_Array_Int_Int hhv_ULTIMATE.start_ULTIMATE.startEXIT_13_Int 0)))) (and (and .loc.5 (or hhv_ULTIMATE.start_ULTIMATE.startEXIT_23_Bool (= .x.296 .x.300))) .def_102))) (and (and (and .loc.6 .loc.12) .def_109) .def_112)) (and (or hbv_ULTIMATE.start_L2-1_23_Bool .def_115) (and .def_39 (and (and .def_102 (and .loc.11 (and .loc.10 (and .loc.5 .def_120)))) .def_125)))) (and (and (and (and .def_131 .def_133) .def_136) .def_139) .def_142)) (and (or hbv_ULTIMATE.start_L2-1_23_Bool (and (= .x.305 (ite (<= .x.307 .x.301) 1 0)) (and (= .x.301 (select .def_152 (+ hhv_ULTIMATE.start_ULTIMATE.startEXIT_12_Int (* 4 hhv_ULTIMATE.start_ULTIMATE.startEXIT_21_Int)))) (and (not .def_156) (and (= .x.299 .x.305) (= .x.307 (select .def_152 (+ (+ hhv_ULTIMATE.start_ULTIMATE.startEXIT_12_Int (* 4 hhv_ULTIMATE.start_ULTIMATE.startEXIT_21_Int)) (- 4))))))))) (and .def_39 (and .def_125 (and .def_102 (and .def_109 (and .loc.11 (and .loc.9 (and .def_91 .def_120))))))))) (and .loc.7 (and .def_178 .def_180))) (and (or hhv_ULTIMATE.start_ULTIMATE.startEXIT_23_Bool (= (+ hhv_ULTIMATE.start_ULTIMATE.startEXIT_21_Int (* (- 1) .x.306)) (- 1))) (and .def_41 (and .def_39 (and .def_125 (and .def_102 (and .def_109 (and .def_142 (and .loc.11 (and .def_91 (and .def_136 .def_190))))))))))) (and (or hbv_ULTIMATE.start_L2-1_23_Bool (= .x.306 1)) (and .def_41 (and .def_125 (and .def_102 (and .def_109 (and .def_142 (and .loc.11 (and .loc.6 (and .loc.5 (and .def_139 .def_206))))))))))) (and .def_39 (and .def_125 (and .def_102 (and .loc.11 (and .loc.10 (and .loc.9 (and .def_91 (and .loc.7 .def_228))))))))) (and (or hbv_ULTIMATE.start_L2-1_23_Bool .def_156) (and .def_39 (and .def_125 (and .def_102 (and .loc.11 (and .loc.10 (and .loc.9 (and .def_91 (and .loc.7 .def_240)))))))))) (and .def_41 (and .def_125 (and .def_102 (and .def_112 (and .loc.10 (and .loc.9 (and .def_91 (and .loc.6 .def_228))))))))) (and (or hbv_ULTIMATE.start_L2-1_23_Bool .def_260) (and .def_41 (and .def_125 (and .def_102 (and .def_112 (and .loc.10 (and .loc.9 .def_263)))))))) (and (and .def_273 .def_275) .def_278)) (and (or hbv_ULTIMATE.start_L2-1_23_Bool (and (= (+ hhv_ULTIMATE.start_ULTIMATE.startEXIT_19_Int (* (- 1) .x.304)) (- 1)) (and (= .x.288 (store hhv_ULTIMATE.start_ULTIMATE.startEXIT_3_Array_Int_Array_Int_Int hhv_ULTIMATE.start_ULTIMATE.startEXIT_13_Int (store .def_152 (+ hhv_ULTIMATE.start_ULTIMATE.startEXIT_12_Int (* 4 hhv_ULTIMATE.start_ULTIMATE.startEXIT_19_Int)) (+ (select .def_152 (+ (+ hhv_ULTIMATE.start_ULTIMATE.startEXIT_12_Int (* 4 hhv_ULTIMATE.start_ULTIMATE.startEXIT_19_Int)) (- 4))) 1)))) (not .def_260)))) (and .def_41 (and .def_125 (and .def_102 (and .def_112 (and .def_142 (and .loc.10 .def_263)))))))) (and (or hbv_ULTIMATE.start_L2-1_23_Bool (not .def_115)) (and .def_39 (and .def_125 (and .def_102 (and .def_112 (and .def_109 (and .def_142 (and .loc.7 (and .loc.5 (and .def_139 (and .def_178 (and .def_136 (and .def_278 (and .def_180 (and .def_273 (and .def_131 (and .def_89 (and .def_133 (and .def_86 (and .def_83 (and .def_80 (and .def_76 .def_275))))))))))))))))))))))) (and .def_125 (and .def_102 (and .def_112 (and .def_109 (and .def_142 (and .def_91 (and .loc.7 (and .loc.6 (and .def_139 (and .def_178 (and .def_136 (and .def_278 (and .def_180 (and .def_273 (and .def_131 (and .def_89 (and .def_133 (and .def_86 (and .def_83 (and .def_80 (and .def_218 .def_275)))))))))))))))))))))) (and (= hhv_ULTIMATE.start_ULTIMATE.startEXIT_9_Int .x.294) (and (= hhv_ULTIMATE.start_ULTIMATE.startEXIT_5_Int .x.290) (= hhv_ULTIMATE.start_ULTIMATE.startEXIT_7_Array_Int_Int .x.292)))) (and (or hbv_ULTIMATE.start_L2-1_23_Bool (and (and (= .x.290 0) (= .x.294 0)) (= hbv_ULTIMATE.start_L-1_1_Array_Int_Int (store hhv_ULTIMATE.start_ULTIMATE.startEXIT_1_Array_Int_Int 0 0)))) (and (or hhv_ULTIMATE.start_ULTIMATE.startEXIT_23_Bool (and (and (and (and (and (and (and (= .x.292 (store hhv_ULTIMATE.start_ULTIMATE.startEXIT_7_Array_Int_Int .x.298 400000)) (= (select hbv_ULTIMATE.start_L-1_1_Array_Int_Int .x.298) 0)) (= .x.288 (store hhv_ULTIMATE.start_ULTIMATE.startEXIT_3_Array_Int_Array_Int_Int .x.298 (store (select hhv_ULTIMATE.start_ULTIMATE.startEXIT_3_Array_Int_Array_Int_Int .x.298) .x.297 7)))) (not (= .x.298 0))) (= .x.286 (store hbv_ULTIMATE.start_L-1_1_Array_Int_Int .x.298 1))) (not (<= .x.285 .x.298))) (= .x.297 0)) (= .x.304 1))) (and .def_41 (and .def_39 (and .def_125 (and .def_102 (and .def_112 (and .def_142 (and .loc.10 (and .loc.5 (and .def_136 (and .def_80 .def_133))))))))))))))))))))))))))))))))))))))))))))))))) (state |.x.285| |.x.286| |.x.287| |.x.288| |.x.289| |.x.290| |.x.291| |.x.292| |.x.293| |.x.294| |.x.295| |.x.296| |.x.297| |.x.298| |.x.299| |.x.300| |.x.301| |.x.302| |.x.303| |.x.304| |.x.305| |.x.306| |.x.307| |hhv_ULTIMATE.start_ULTIMATE.startEXIT_23_Bool| |.loc.9| |.loc.10| |.loc.11| |.loc.12| |.xtv.1|))))
(assert (forall ((|hhv_ULTIMATE.start_ULTIMATE.startEXIT_0_Int| Int) (|hhv_ULTIMATE.start_ULTIMATE.startEXIT_1_Array_Int_Int| (Array Int Int)) (|hhv_ULTIMATE.start_ULTIMATE.startEXIT_2_Array_Int_Int| (Array Int Int)) (|hhv_ULTIMATE.start_ULTIMATE.startEXIT_3_Array_Int_Array_Int_Int| (Array Int Int)) (|hhv_ULTIMATE.start_ULTIMATE.startEXIT_4_Array_Int_Array_Int_Int| (Array Int Int)) (|hhv_ULTIMATE.start_ULTIMATE.startEXIT_5_Int| Int) (|hhv_ULTIMATE.start_ULTIMATE.startEXIT_6_Int| Int) (|hhv_ULTIMATE.start_ULTIMATE.startEXIT_7_Array_Int_Int| (Array Int Int)) (|hhv_ULTIMATE.start_ULTIMATE.startEXIT_8_Array_Int_Int| (Array Int Int)) (|hhv_ULTIMATE.start_ULTIMATE.startEXIT_9_Int| Int) (|hhv_ULTIMATE.start_ULTIMATE.startEXIT_10_Int| Int) (|hhv_ULTIMATE.start_ULTIMATE.startEXIT_11_Int| Int) (|hhv_ULTIMATE.start_ULTIMATE.startEXIT_12_Int| Int) (|hhv_ULTIMATE.start_ULTIMATE.startEXIT_13_Int| Int) (|hhv_ULTIMATE.start_ULTIMATE.startEXIT_14_Int| Int) (|hhv_ULTIMATE.start_ULTIMATE.startEXIT_15_Int| Int) (|hhv_ULTIMATE.start_ULTIMATE.startEXIT_16_Int| Int) (|hhv_ULTIMATE.start_ULTIMATE.startEXIT_17_Int| Int) (|hhv_ULTIMATE.start_ULTIMATE.startEXIT_18_Int| Int) (|hhv_ULTIMATE.start_ULTIMATE.startEXIT_19_Int| Int) (|hhv_ULTIMATE.start_ULTIMATE.startEXIT_20_Int| Int) (|hhv_ULTIMATE.start_ULTIMATE.startEXIT_21_Int| Int) (|hhv_ULTIMATE.start_ULTIMATE.startEXIT_22_Int| Int) (|hbv_ULTIMATE.start_L2-1_23_Bool| Bool) (|.loc.5| Bool) (|.loc.6| Bool) (|.loc.7| Bool) (|.loc.8| Bool) (|hbv_ULTIMATE.start_L-1_1_Array_Int_Int| (Array Int Int)) (|.x.295| Int) (|.x.293| (Array Int Int)) (|.x.291| Int) (|.x.289| (Array Int Int)) (|.x.285| Int) (|.x.287| (Array Int Int)) (|.x.286| (Array Int Int)) (|hhv_ULTIMATE.start_ULTIMATE.startEXIT_23_Bool| Bool) (|.x.296| Int) (|.x.297| Int) (|.x.298| Int) (|.x.300| Int) (|.loc.12| Bool) (|.loc.10| Bool) (|.loc.11| Bool) (|.x.301| Int) (|.x.299| Int) (|.x.305| Int) (|.x.307| Int) (|.loc.9| Bool) (|.x.306| Int) (|.x.303| Int) (|.x.302| Int) (|.x.288| (Array Int Int)) (|.x.304| Int) (|.x.294| Int) (|.x.290| Int) (|.x.292| (Array Int Int)) (|.xtv.1| (Array Int Int))) (=> (state |hhv_ULTIMATE.start_ULTIMATE.startEXIT_0_Int| |hhv_ULTIMATE.start_ULTIMATE.startEXIT_1_Array_Int_Int| |hhv_ULTIMATE.start_ULTIMATE.startEXIT_2_Array_Int_Int| |hhv_ULTIMATE.start_ULTIMATE.startEXIT_3_Array_Int_Array_Int_Int| |hhv_ULTIMATE.start_ULTIMATE.startEXIT_4_Array_Int_Array_Int_Int| |hhv_ULTIMATE.start_ULTIMATE.startEXIT_5_Int| |hhv_ULTIMATE.start_ULTIMATE.startEXIT_6_Int| |hhv_ULTIMATE.start_ULTIMATE.startEXIT_7_Array_Int_Int| |hhv_ULTIMATE.start_ULTIMATE.startEXIT_8_Array_Int_Int| |hhv_ULTIMATE.start_ULTIMATE.startEXIT_9_Int| |hhv_ULTIMATE.start_ULTIMATE.startEXIT_10_Int| |hhv_ULTIMATE.start_ULTIMATE.startEXIT_11_Int| |hhv_ULTIMATE.start_ULTIMATE.startEXIT_12_Int| |hhv_ULTIMATE.start_ULTIMATE.startEXIT_13_Int| |hhv_ULTIMATE.start_ULTIMATE.startEXIT_14_Int| |hhv_ULTIMATE.start_ULTIMATE.startEXIT_15_Int| |hhv_ULTIMATE.start_ULTIMATE.startEXIT_16_Int| |hhv_ULTIMATE.start_ULTIMATE.startEXIT_17_Int| |hhv_ULTIMATE.start_ULTIMATE.startEXIT_18_Int| |hhv_ULTIMATE.start_ULTIMATE.startEXIT_19_Int| |hhv_ULTIMATE.start_ULTIMATE.startEXIT_20_Int| |hhv_ULTIMATE.start_ULTIMATE.startEXIT_21_Int| |hhv_ULTIMATE.start_ULTIMATE.startEXIT_22_Int| |hbv_ULTIMATE.start_L2-1_23_Bool| |.loc.5| |.loc.6| |.loc.7| |.loc.8| |hbv_ULTIMATE.start_L-1_1_Array_Int_Int|) (not (and hbv_ULTIMATE.start_L2-1_23_Bool (and .loc.8 (and (not .loc.7) (and (not .loc.6) (not .loc.5)))))))))
(check-sat)
